Maximize

1 x_0 + 4 x_1 + 2 x_2 + 4 x_3 + 1 x_4 + 4 x_5 + 4 x_6 + 1 x_7 + 2 x_8 + 1 x_9 + 1 x_10 + 3 x_11 + 0 x_12 + 3 x_13 + 4 x_14 + 4 x_15 + 4 x_16 + 0 x_17 + 3 x_18 + 3 x_19 + 0 x_20 + 1 x_21 + 1 x_22 + 3 x_23 + 2 x_24 + 2 x_25 + 0 x_26 + 0 x_27 + 1 x_28 + 2 x_29 + 4 x_30 + 3 x_31 + 3 x_32 + 0 x_33 + 3 x_34 + 0 x_35 + 4 x_36 + 4 x_37 + 2 x_38 + 1 x_39 + 1 x_40 + 2 x_41 + 1 x_42 + 0 x_43 + 1 x_44 + 2 x_45 + 1 x_46 + 0 x_47 + 0 x_48 + 0 x_49 + 3 x_50 + 1 x_51 + 1 x_52 + 2 x_53 + 2 x_54 + 0 x_55 + 4 x_56 + 0 x_57 + 3 x_58 + 2 x_59 + 0 x_60 + 2 x_61 + 1 x_62 + 4 x_63 + 1 x_64 + 1 x_65 + 2 x_66 + 3 x_67 + 1 x_68 + 4 x_69 + 1 x_70 + 4 x_71 + 1 x_72 + 3 x_73 + 1 x_74 + 2 x_75 + 3 x_76 + 2 x_77 + 4 x_78 + 0 x_79 + 0 x_80 + 2 x_81 + 3 x_82 + 2 x_83 + 4 x_84 + 3 x_85 + 0 x_86 + 2 x_87 + 4 x_88 + 0 x_89 + 2 x_90 + 3 x_91 + 4 x_92 + 3 x_93 + 2 x_94 + 1 x_95 + 4 x_96 + 0 x_97 + 0 x_98


Subject To

a0: 1346.2 x_0 + 1272.3 x_1 + 1227.6 x_2 + 1809.4 x_3 + 1024.0 x_4 + 1983.8 x_5 + 1937.4 x_6 + 1772.1 x_7 + 1859.2 x_8 + 1356.3 x_9 + 1252.6 x_10 + 1040.4 x_11 + 1558.6 x_12 + 1844.9 x_13 + 1100.1 x_14 + 1595.5 x_15 + 1558.1 x_16 + 1406.1 x_17 + 1902.0 x_18 + 1377.0 x_19 + 1239.4 x_20 + 1180.2 x_21 + 1085.4 x_22 + 1298.3 x_23 + 1566.1 x_24 + 1834.7 x_25 + 1705.3 x_26 + 1559.9 x_27 + 1207.0 x_28 + 1714.5 x_29 + 1637.4 x_30 + 1837.3 x_31 + 1109.3 x_32 + 1738.1 x_33 + 1051.1 x_34 + 1696.9 x_35 + 1345.1 x_36 + 1986.1 x_37 + 1588.6 x_38 + 1083.9 x_39 + 1880.0 x_40 + 1155.6 x_41 + 1868.1 x_42 + 1941.8 x_43 + 1715.5 x_44 + 1500.6 x_45 + 1584.7 x_46 + 1948.7 x_47 + 1619.8 x_48 + 1544.8 x_49 + 1609.4 x_50 + 1010.6 x_51 + 1397.7 x_52 + 1735.4 x_53 + 1079.3 x_54 + 1514.9 x_55 + 1356.3 x_56 + 1308.9 x_57 + 1539.2 x_58 + 1438.1 x_59 + 1293.1 x_60 + 1963.2 x_61 + 1722.6 x_62 + 1205.6 x_63 + 1976.8 x_64 + 1467.7 x_65 + 1565.5 x_66 + 1725.6 x_67 + 1701.4 x_68 + 1105.1 x_69 + 1512.8 x_70 + 1263.6 x_71 + 1071.9 x_72 + 1811.3 x_73 + 1116.2 x_74 + 1784.5 x_75 + 1728.6 x_76 + 1082.3 x_77 + 1332.9 x_78 + 1070.7 x_79 + 1234.3 x_80 + 1126.4 x_81 + 1803.9 x_82 + 1325.3 x_83 + 1833.4 x_84 + 1377.7 x_85 + 1743.4 x_86 + 1083.3 x_87 + 1244.5 x_88 + 1336.2 x_89 + 1876.5 x_90 + 1097.0 x_91 + 1074.0 x_92 + 1775.2 x_93 + 1151.6 x_94 + 1412.1 x_95 + 1828.1 x_96 + 1641.6 x_97 + 1698.8 x_98 <= 31523
b0: 1 x_0 + 0 x_1 + 0 x_2 + 1 x_3 + 0 x_4 + 0 x_5 + 0 x_6 + 0 x_7 + 1 x_8 + 0 x_9 + 0 x_10 + 0 x_11 + 0 x_12 + 0 x_13 + 0 x_14 + 0 x_15 + 0 x_16 + 1 x_17 + 0 x_18 + 0 x_19 + 0 x_20 + 0 x_21 + 1 x_22 + 1 x_23 + 0 x_24 + 0 x_25 + 0 x_26 + 0 x_27 + 1 x_28 + 0 x_29 + 0 x_30 + 0 x_31 + 0 x_32 + 0 x_33 + 0 x_34 + 0 x_35 + 0 x_36 + 0 x_37 + 0 x_38 + 0 x_39 + 0 x_40 + 0 x_41 + 0 x_42 + 1 x_43 + 0 x_44 + 0 x_45 + 0 x_46 + 0 x_47 + 0 x_48 + 1 x_49 + 0 x_50 + 0 x_51 + 0 x_52 + 1 x_53 + 0 x_54 + 0 x_55 + 0 x_56 + 0 x_57 + 0 x_58 + 0 x_59 + 0 x_60 + 0 x_61 + 0 x_62 + 0 x_63 + 0 x_64 + 0 x_65 + 0 x_66 + 0 x_67 + 0 x_68 + 1 x_69 + 0 x_70 + 0 x_71 + 0 x_72 + 0 x_73 + 0 x_74 + 0 x_75 + 0 x_76 + 0 x_77 + 0 x_78 + 0 x_79 + 0 x_80 + 0 x_81 + 0 x_82 + 0 x_83 + 0 x_84 + 0 x_85 + 0 x_86 + 0 x_87 + 0 x_88 + 1 x_89 + 0 x_90 + 0 x_91 + 0 x_92 + 0 x_93 + 0 x_94 + 0 x_95 + 1 x_96 + 0 x_97 + 0 x_98 > 1
b1: 0 x_0 + 0 x_1 + 1 x_2 + 1 x_3 + 0 x_4 + 0 x_5 + 0 x_6 + 0 x_7 + 0 x_8 + 1 x_9 + 0 x_10 + 0 x_11 + 0 x_12 + 0 x_13 + 0 x_14 + 0 x_15 + 0 x_16 + 0 x_17 + 0 x_18 + 0 x_19 + 0 x_20 + 0 x_21 + 0 x_22 + 0 x_23 + 0 x_24 + 0 x_25 + 0 x_26 + 0 x_27 + 0 x_28 + 0 x_29 + 0 x_30 + 0 x_31 + 1 x_32 + 0 x_33 + 0 x_34 + 0 x_35 + 0 x_36 + 0 x_37 + 0 x_38 + 0 x_39 + 0 x_40 + 0 x_41 + 0 x_42 + 0 x_43 + 1 x_44 + 0 x_45 + 1 x_46 + 1 x_47 + 1 x_48 + 0 x_49 + 0 x_50 + 0 x_51 + 0 x_52 + 0 x_53 + 0 x_54 + 1 x_55 + 0 x_56 + 0 x_57 + 0 x_58 + 0 x_59 + 0 x_60 + 0 x_61 + 0 x_62 + 0 x_63 + 0 x_64 + 0 x_65 + 1 x_66 + 0 x_67 + 1 x_68 + 1 x_69 + 0 x_70 + 0 x_71 + 0 x_72 + 0 x_73 + 0 x_74 + 0 x_75 + 0 x_76 + 0 x_77 + 0 x_78 + 0 x_79 + 0 x_80 + 0 x_81 + 0 x_82 + 0 x_83 + 1 x_84 + 0 x_85 + 0 x_86 + 1 x_87 + 0 x_88 + 0 x_89 + 1 x_90 + 1 x_91 + 0 x_92 + 0 x_93 + 0 x_94 + 1 x_95 + 0 x_96 + 0 x_97 + 1 x_98 > 1
b2: 0 x_0 + 0 x_1 + 0 x_2 + 0 x_3 + 0 x_4 + 0 x_5 + 0 x_6 + 1 x_7 + 0 x_8 + 0 x_9 + 0 x_10 + 0 x_11 + 1 x_12 + 1 x_13 + 0 x_14 + 0 x_15 + 0 x_16 + 0 x_17 + 1 x_18 + 0 x_19 + 0 x_20 + 0 x_21 + 0 x_22 + 0 x_23 + 0 x_24 + 0 x_25 + 1 x_26 + 1 x_27 + 0 x_28 + 0 x_29 + 0 x_30 + 0 x_31 + 0 x_32 + 0 x_33 + 0 x_34 + 0 x_35 + 0 x_36 + 0 x_37 + 0 x_38 + 0 x_39 + 0 x_40 + 0 x_41 + 0 x_42 + 0 x_43 + 1 x_44 + 0 x_45 + 0 x_46 + 0 x_47 + 0 x_48 + 0 x_49 + 0 x_50 + 0 x_51 + 0 x_52 + 0 x_53 + 1 x_54 + 0 x_55 + 0 x_56 + 1 x_57 + 0 x_58 + 0 x_59 + 1 x_60 + 0 x_61 + 1 x_62 + 0 x_63 + 0 x_64 + 0 x_65 + 0 x_66 + 0 x_67 + 0 x_68 + 0 x_69 + 0 x_70 + 1 x_71 + 0 x_72 + 1 x_73 + 0 x_74 + 0 x_75 + 0 x_76 + 0 x_77 + 0 x_78 + 0 x_79 + 0 x_80 + 1 x_81 + 0 x_82 + 0 x_83 + 0 x_84 + 0 x_85 + 0 x_86 + 0 x_87 + 0 x_88 + 0 x_89 + 0 x_90 + 0 x_91 + 0 x_92 + 0 x_93 + 1 x_94 + 0 x_95 + 0 x_96 + 0 x_97 + 0 x_98 > 1
b3: 0 x_0 + 0 x_1 + 0 x_2 + 0 x_3 + 0 x_4 + 1 x_5 + 0 x_6 + 0 x_7 + 0 x_8 + 0 x_9 + 0 x_10 + 1 x_11 + 0 x_12 + 1 x_13 + 0 x_14 + 1 x_15 + 0 x_16 + 0 x_17 + 0 x_18 + 0 x_19 + 1 x_20 + 0 x_21 + 0 x_22 + 1 x_23 + 0 x_24 + 1 x_25 + 0 x_26 + 0 x_27 + 0 x_28 + 1 x_29 + 0 x_30 + 0 x_31 + 0 x_32 + 0 x_33 + 1 x_34 + 1 x_35 + 0 x_36 + 1 x_37 + 1 x_38 + 0 x_39 + 0 x_40 + 0 x_41 + 0 x_42 + 0 x_43 + 0 x_44 + 1 x_45 + 0 x_46 + 0 x_47 + 0 x_48 + 1 x_49 + 0 x_50 + 0 x_51 + 0 x_52 + 0 x_53 + 0 x_54 + 0 x_55 + 0 x_56 + 0 x_57 + 0 x_58 + 0 x_59 + 1 x_60 + 1 x_61 + 0 x_62 + 0 x_63 + 0 x_64 + 0 x_65 + 0 x_66 + 0 x_67 + 0 x_68 + 1 x_69 + 0 x_70 + 1 x_71 + 0 x_72 + 0 x_73 + 0 x_74 + 0 x_75 + 0 x_76 + 0 x_77 + 1 x_78 + 0 x_79 + 1 x_80 + 0 x_81 + 0 x_82 + 1 x_83 + 0 x_84 + 0 x_85 + 0 x_86 + 0 x_87 + 0 x_88 + 1 x_89 + 0 x_90 + 0 x_91 + 0 x_92 + 1 x_93 + 0 x_94 + 0 x_95 + 0 x_96 + 0 x_97 + 1 x_98 > 1
b4: 1 x_0 + 0 x_1 + 0 x_2 + 0 x_3 + 0 x_4 + 0 x_5 + 0 x_6 + 0 x_7 + 0 x_8 + 0 x_9 + 1 x_10 + 0 x_11 + 0 x_12 + 0 x_13 + 0 x_14 + 0 x_15 + 0 x_16 + 0 x_17 + 0 x_18 + 0 x_19 + 0 x_20 + 0 x_21 + 0 x_22 + 0 x_23 + 0 x_24 + 0 x_25 + 0 x_26 + 0 x_27 + 0 x_28 + 1 x_29 + 0 x_30 + 0 x_31 + 1 x_32 + 0 x_33 + 0 x_34 + 0 x_35 + 0 x_36 + 0 x_37 + 1 x_38 + 0 x_39 + 0 x_40 + 0 x_41 + 0 x_42 + 0 x_43 + 0 x_44 + 0 x_45 + 0 x_46 + 1 x_47 + 1 x_48 + 0 x_49 + 0 x_50 + 0 x_51 + 0 x_52 + 0 x_53 + 0 x_54 + 0 x_55 + 1 x_56 + 0 x_57 + 0 x_58 + 0 x_59 + 1 x_60 + 0 x_61 + 1 x_62 + 0 x_63 + 0 x_64 + 0 x_65 + 0 x_66 + 0 x_67 + 0 x_68 + 0 x_69 + 0 x_70 + 0 x_71 + 0 x_72 + 0 x_73 + 0 x_74 + 0 x_75 + 0 x_76 + 1 x_77 + 0 x_78 + 0 x_79 + 0 x_80 + 0 x_81 + 0 x_82 + 0 x_83 + 0 x_84 + 0 x_85 + 0 x_86 + 0 x_87 + 0 x_88 + 1 x_89 + 0 x_90 + 0 x_91 + 0 x_92 + 0 x_93 + 0 x_94 + 0 x_95 + 0 x_96 + 0 x_97 + 0 x_98 > 1
b5: 0 x_0 + 1 x_1 + 0 x_2 + 0 x_3 + 0 x_4 + 0 x_5 + 1 x_6 + 0 x_7 + 0 x_8 + 0 x_9 + 0 x_10 + 0 x_11 + 0 x_12 + 0 x_13 + 0 x_14 + 0 x_15 + 0 x_16 + 1 x_17 + 1 x_18 + 0 x_19 + 1 x_20 + 0 x_21 + 1 x_22 + 1 x_23 + 0 x_24 + 0 x_25 + 0 x_26 + 1 x_27 + 0 x_28 + 0 x_29 + 0 x_30 + 0 x_31 + 0 x_32 + 0 x_33 + 0 x_34 + 0 x_35 + 0 x_36 + 1 x_37 + 0 x_38 + 0 x_39 + 0 x_40 + 1 x_41 + 0 x_42 + 0 x_43 + 0 x_44 + 0 x_45 + 0 x_46 + 0 x_47 + 0 x_48 + 0 x_49 + 0 x_50 + 0 x_51 + 0 x_52 + 1 x_53 + 0 x_54 + 0 x_55 + 1 x_56 + 0 x_57 + 0 x_58 + 0 x_59 + 1 x_60 + 0 x_61 + 0 x_62 + 0 x_63 + 0 x_64 + 0 x_65 + 1 x_66 + 1 x_67 + 0 x_68 + 0 x_69 + 1 x_70 + 1 x_71 + 1 x_72 + 0 x_73 + 0 x_74 + 1 x_75 + 0 x_76 + 0 x_77 + 0 x_78 + 0 x_79 + 0 x_80 + 0 x_81 + 0 x_82 + 0 x_83 + 0 x_84 + 0 x_85 + 0 x_86 + 0 x_87 + 1 x_88 + 0 x_89 + 1 x_90 + 0 x_91 + 0 x_92 + 0 x_93 + 0 x_94 + 0 x_95 + 0 x_96 + 0 x_97 + 0 x_98 > 1
b6: 0 x_0 + 0 x_1 + 1 x_2 + 1 x_3 + 0 x_4 + 0 x_5 + 0 x_6 + 0 x_7 + 0 x_8 + 1 x_9 + 0 x_10 + 0 x_11 + 0 x_12 + 0 x_13 + 0 x_14 + 0 x_15 + 0 x_16 + 0 x_17 + 0 x_18 + 0 x_19 + 0 x_20 + 0 x_21 + 0 x_22 + 0 x_23 + 0 x_24 + 0 x_25 + 0 x_26 + 0 x_27 + 0 x_28 + 0 x_29 + 0 x_30 + 0 x_31 + 1 x_32 + 0 x_33 + 0 x_34 + 0 x_35 + 0 x_36 + 0 x_37 + 0 x_38 + 0 x_39 + 0 x_40 + 0 x_41 + 0 x_42 + 0 x_43 + 1 x_44 + 0 x_45 + 1 x_46 + 1 x_47 + 1 x_48 + 0 x_49 + 0 x_50 + 0 x_51 + 0 x_52 + 0 x_53 + 0 x_54 + 1 x_55 + 0 x_56 + 0 x_57 + 0 x_58 + 0 x_59 + 0 x_60 + 0 x_61 + 0 x_62 + 0 x_63 + 0 x_64 + 0 x_65 + 1 x_66 + 0 x_67 + 1 x_68 + 1 x_69 + 0 x_70 + 0 x_71 + 0 x_72 + 0 x_73 + 0 x_74 + 0 x_75 + 0 x_76 + 0 x_77 + 0 x_78 + 0 x_79 + 0 x_80 + 0 x_81 + 0 x_82 + 0 x_83 + 1 x_84 + 0 x_85 + 0 x_86 + 1 x_87 + 0 x_88 + 0 x_89 + 1 x_90 + 1 x_91 + 0 x_92 + 0 x_93 + 0 x_94 + 1 x_95 + 0 x_96 + 0 x_97 + 1 x_98 > 1
b7: 0 x_0 + 0 x_1 + 0 x_2 + 0 x_3 + 0 x_4 + 0 x_5 + 0 x_6 + 0 x_7 + 0 x_8 + 0 x_9 + 0 x_10 + 0 x_11 + 0 x_12 + 0 x_13 + 0 x_14 + 1 x_15 + 1 x_16 + 0 x_17 + 1 x_18 + 0 x_19 + 0 x_20 + 0 x_21 + 0 x_22 + 0 x_23 + 0 x_24 + 0 x_25 + 0 x_26 + 0 x_27 + 0 x_28 + 0 x_29 + 0 x_30 + 0 x_31 + 0 x_32 + 0 x_33 + 0 x_34 + 0 x_35 + 0 x_36 + 1 x_37 + 0 x_38 + 1 x_39 + 0 x_40 + 0 x_41 + 0 x_42 + 0 x_43 + 1 x_44 + 1 x_45 + 0 x_46 + 0 x_47 + 0 x_48 + 0 x_49 + 0 x_50 + 1 x_51 + 0 x_52 + 0 x_53 + 0 x_54 + 0 x_55 + 0 x_56 + 1 x_57 + 0 x_58 + 0 x_59 + 0 x_60 + 0 x_61 + 0 x_62 + 0 x_63 + 0 x_64 + 0 x_65 + 0 x_66 + 0 x_67 + 1 x_68 + 0 x_69 + 0 x_70 + 0 x_71 + 0 x_72 + 1 x_73 + 0 x_74 + 1 x_75 + 0 x_76 + 0 x_77 + 0 x_78 + 0 x_79 + 1 x_80 + 0 x_81 + 0 x_82 + 0 x_83 + 0 x_84 + 0 x_85 + 0 x_86 + 0 x_87 + 0 x_88 + 0 x_89 + 1 x_90 + 0 x_91 + 0 x_92 + 0 x_93 + 0 x_94 + 1 x_95 + 0 x_96 + 0 x_97 + 1 x_98 > 1
b8: 0 x_0 + 0 x_1 + 0 x_2 + 0 x_3 + 0 x_4 + 1 x_5 + 0 x_6 + 0 x_7 + 0 x_8 + 0 x_9 + 0 x_10 + 1 x_11 + 0 x_12 + 1 x_13 + 0 x_14 + 1 x_15 + 0 x_16 + 0 x_17 + 0 x_18 + 0 x_19 + 1 x_20 + 0 x_21 + 0 x_22 + 1 x_23 + 0 x_24 + 1 x_25 + 0 x_26 + 0 x_27 + 0 x_28 + 1 x_29 + 0 x_30 + 0 x_31 + 0 x_32 + 0 x_33 + 1 x_34 + 1 x_35 + 0 x_36 + 1 x_37 + 1 x_38 + 0 x_39 + 0 x_40 + 0 x_41 + 0 x_42 + 0 x_43 + 0 x_44 + 1 x_45 + 0 x_46 + 0 x_47 + 0 x_48 + 1 x_49 + 0 x_50 + 0 x_51 + 0 x_52 + 0 x_53 + 0 x_54 + 0 x_55 + 0 x_56 + 0 x_57 + 0 x_58 + 0 x_59 + 1 x_60 + 1 x_61 + 0 x_62 + 0 x_63 + 0 x_64 + 0 x_65 + 0 x_66 + 0 x_67 + 0 x_68 + 1 x_69 + 0 x_70 + 1 x_71 + 0 x_72 + 0 x_73 + 0 x_74 + 0 x_75 + 0 x_76 + 0 x_77 + 1 x_78 + 0 x_79 + 1 x_80 + 0 x_81 + 0 x_82 + 1 x_83 + 0 x_84 + 0 x_85 + 0 x_86 + 0 x_87 + 0 x_88 + 1 x_89 + 0 x_90 + 0 x_91 + 0 x_92 + 1 x_93 + 0 x_94 + 0 x_95 + 0 x_96 + 0 x_97 + 1 x_98 > 1
b9: 0 x_0 + 0 x_1 + 1 x_2 + 0 x_3 + 0 x_4 + 0 x_5 + 0 x_6 + 1 x_7 + 1 x_8 + 0 x_9 + 0 x_10 + 0 x_11 + 0 x_12 + 1 x_13 + 1 x_14 + 0 x_15 + 0 x_16 + 0 x_17 + 0 x_18 + 0 x_19 + 0 x_20 + 1 x_21 + 1 x_22 + 0 x_23 + 1 x_24 + 1 x_25 + 0 x_26 + 0 x_27 + 0 x_28 + 0 x_29 + 0 x_30 + 1 x_31 + 0 x_32 + 0 x_33 + 0 x_34 + 0 x_35 + 1 x_36 + 0 x_37 + 0 x_38 + 0 x_39 + 0 x_40 + 0 x_41 + 1 x_42 + 0 x_43 + 0 x_44 + 0 x_45 + 0 x_46 + 0 x_47 + 0 x_48 + 0 x_49 + 1 x_50 + 0 x_51 + 1 x_52 + 1 x_53 + 0 x_54 + 0 x_55 + 0 x_56 + 0 x_57 + 0 x_58 + 0 x_59 + 0 x_60 + 1 x_61 + 0 x_62 + 0 x_63 + 1 x_64 + 0 x_65 + 0 x_66 + 1 x_67 + 1 x_68 + 0 x_69 + 0 x_70 + 0 x_71 + 0 x_72 + 0 x_73 + 0 x_74 + 0 x_75 + 0 x_76 + 0 x_77 + 0 x_78 + 0 x_79 + 0 x_80 + 0 x_81 + 0 x_82 + 0 x_83 + 0 x_84 + 0 x_85 + 0 x_86 + 0 x_87 + 0 x_88 + 0 x_89 + 0 x_90 + 0 x_91 + 0 x_92 + 0 x_93 + 0 x_94 + 0 x_95 + 1 x_96 + 0 x_97 + 0 x_98 > 1
c0: x_98 + x_9 <= 1




 


End
